p cnf 190 1270
-1 0
-2 0
-11 0
-12 0
-1 0
-2 0
-3 0
-9 0
-12 0
-13 0
-2 0
-3 0
-4 0
-8 0
-13 0
-14 0
-3 0
-4 0
-5 0
-7 0
-14 0
-15 0
-4 0
-5 0
-6 0
-6 0
-15 0
-16 0
-5 0
-6 0
-7 0
-5 0
-16 0
-17 0
-6 0
-7 0
-8 0
-4 0
-17 0
-18 0
-7 0
-8 0
-9 0
-3 0
-18 0
-19 0
-8 0
-9 0
-10 0
-2 0
-19 0
-20 0
-9 0
-10 0
-1 0
-20 0
1 2 101 0
-101 11 102 0
-102 12 103 0
-103 21 22 0
-1 -2 0
-1 -11 0
-2 -11 0
-1 -12 0
-2 -12 0
-11 -12 0
-1 -21 0
-2 -21 0
-11 -21 0
-12 -21 0
-1 -22 0
-2 -22 0
-11 -22 0
-12 -22 0
-21 -22 0
1 2 104 0
-104 3 105 0
-105 11 106 0
-106 12 107 0
-107 13 108 0
-108 21 109 0
-109 22 23 0
-1 -2 0
-1 -3 0
-2 -3 0
-1 -11 0
-2 -11 0
-3 -11 0
-1 -12 0
-2 -12 0
-3 -12 0
-11 -12 0
-1 -13 0
-2 -13 0
-3 -13 0
-11 -13 0
-12 -13 0
-1 -21 0
-2 -21 0
-3 -21 0
-11 -21 0
-12 -21 0
-13 -21 0
-1 -22 0
-2 -22 0
-3 -22 0
-11 -22 0
-12 -22 0
-13 -22 0
-21 -22 0
-1 -23 0
-2 -23 0
-3 -23 0
-11 -23 0
-12 -23 0
-13 -23 0
-21 -23 0
-22 -23 0
2 3 110 0
-110 4 111 0
-111 12 112 0
-112 13 113 0
-113 14 114 0
-114 22 115 0
-115 23 24 0
-2 -3 0
-2 -4 0
-3 -4 0
-2 -12 0
-3 -12 0
-4 -12 0
-2 -13 0
-3 -13 0
-4 -13 0
-12 -13 0
-2 -14 0
-3 -14 0
-4 -14 0
-12 -14 0
-13 -14 0
-2 -22 0
-3 -22 0
-4 -22 0
-12 -22 0
-13 -22 0
-14 -22 0
-2 -23 0
-3 -23 0
-4 -23 0
-12 -23 0
-13 -23 0
-14 -23 0
-22 -23 0
-2 -24 0
-3 -24 0
-4 -24 0
-12 -24 0
-13 -24 0
-14 -24 0
-22 -24 0
-23 -24 0
-3 0
-4 0
-5 0
-13 0
-14 0
-15 0
-17 0
-24 0
-25 0
-4 0
-5 0
-6 0
-14 0
-15 0
-16 0
-16 0
-25 0
-26 0
-5 0
-6 0
-7 0
-15 0
-16 0
-17 0
-15 0
-26 0
-27 0
-6 0
-7 0
-8 0
-16 0
-17 0
-18 0
-14 0
-27 0
-28 0
-7 0
-8 0
-9 0
-17 0
-18 0
-19 0
-13 0
-28 0
-29 0
-8 0
-9 0
-10 0
-18 0
-19 0
-20 0
-12 0
-29 0
-30 0
-9 0
-10 0
-19 0
-20 0
-11 0
-30 0
11 12 116 0
-116 21 117 0
-117 22 118 0
-118 31 32 0
-11 -12 0
-11 -21 0
-12 -21 0
-11 -22 0
-12 -22 0
-21 -22 0
-11 -31 0
-12 -31 0
-21 -31 0
-22 -31 0
-11 -32 0
-12 -32 0
-21 -32 0
-22 -32 0
-31 -32 0
11 12 119 0
-119 13 120 0
-120 21 121 0
-121 22 122 0
-122 23 123 0
-123 31 124 0
-124 32 33 0
-11 -12 0
-11 -13 0
-12 -13 0
-11 -21 0
-12 -21 0
-13 -21 0
-11 -22 0
-12 -22 0
-13 -22 0
-21 -22 0
-11 -23 0
-12 -23 0
-13 -23 0
-21 -23 0
-22 -23 0
-11 -31 0
-12 -31 0
-13 -31 0
-21 -31 0
-22 -31 0
-23 -31 0
-11 -32 0
-12 -32 0
-13 -32 0
-21 -32 0
-22 -32 0
-23 -32 0
-31 -32 0
-11 -33 0
-12 -33 0
-13 -33 0
-21 -33 0
-22 -33 0
-23 -33 0
-31 -33 0
-32 -33 0
12 13 125 0
-125 14 126 0
-126 22 127 0
-127 23 128 0
-128 24 129 0
-129 32 130 0
-130 33 34 0
-12 -13 0
-12 -14 0
-13 -14 0
-12 -22 0
-13 -22 0
-14 -22 0
-12 -23 0
-13 -23 0
-14 -23 0
-22 -23 0
-12 -24 0
-13 -24 0
-14 -24 0
-22 -24 0
-23 -24 0
-12 -32 0
-13 -32 0
-14 -32 0
-22 -32 0
-23 -32 0
-24 -32 0
-12 -33 0
-13 -33 0
-14 -33 0
-22 -33 0
-23 -33 0
-24 -33 0
-32 -33 0
-12 -34 0
-13 -34 0
-14 -34 0
-22 -34 0
-23 -34 0
-24 -34 0
-32 -34 0
-33 -34 0
-13 0
-14 0
-15 0
-23 0
-24 0
-25 0
-27 0
-34 0
-35 0
-14 0
-15 0
-16 0
-24 0
-25 0
-26 0
-26 0
-35 0
-36 0
-15 0
-16 0
-17 0
-25 0
-26 0
-27 0
-25 0
-36 0
-37 0
-16 0
-17 0
-18 0
-26 0
-27 0
-28 0
-24 0
-37 0
-38 0
-17 0
-18 0
-19 0
-27 0
-28 0
-29 0
-23 0
-38 0
-39 0
-18 0
-19 0
-20 0
-28 0
-29 0
-30 0
-22 0
-39 0
-40 0
-19 0
-20 0
-29 0
-30 0
-21 0
-40 0
21 22 131 0
-131 31 132 0
-132 32 133 0
-133 41 42 0
-21 -22 0
-21 -31 0
-22 -31 0
-21 -32 0
-22 -32 0
-31 -32 0
-21 -41 0
-22 -41 0
-31 -41 0
-32 -41 0
-21 -42 0
-22 -42 0
-31 -42 0
-32 -42 0
-41 -42 0
21 22 134 0
-134 23 135 0
-135 31 136 0
-136 32 137 0
-137 33 138 0
-138 41 139 0
-139 42 43 0
-21 -22 0
-21 -23 0
-22 -23 0
-21 -31 0
-22 -31 0
-23 -31 0
-21 -32 0
-22 -32 0
-23 -32 0
-31 -32 0
-21 -33 0
-22 -33 0
-23 -33 0
-31 -33 0
-32 -33 0
-21 -41 0
-22 -41 0
-23 -41 0
-31 -41 0
-32 -41 0
-33 -41 0
-21 -42 0
-22 -42 0
-23 -42 0
-31 -42 0
-32 -42 0
-33 -42 0
-41 -42 0
-21 -43 0
-22 -43 0
-23 -43 0
-31 -43 0
-32 -43 0
-33 -43 0
-41 -43 0
-42 -43 0
22 23 140 0
-140 24 141 0
-141 32 142 0
-142 33 143 0
-143 34 144 0
-144 42 145 0
-145 43 44 0
-22 -23 0
-22 -24 0
-23 -24 0
-22 -32 0
-23 -32 0
-24 -32 0
-22 -33 0
-23 -33 0
-24 -33 0
-32 -33 0
-22 -34 0
-23 -34 0
-24 -34 0
-32 -34 0
-33 -34 0
-22 -42 0
-23 -42 0
-24 -42 0
-32 -42 0
-33 -42 0
-34 -42 0
-22 -43 0
-23 -43 0
-24 -43 0
-32 -43 0
-33 -43 0
-34 -43 0
-42 -43 0
-22 -44 0
-23 -44 0
-24 -44 0
-32 -44 0
-33 -44 0
-34 -44 0
-42 -44 0
-43 -44 0
-23 0
-24 0
-25 0
-33 0
-34 0
-35 0
-37 0
-44 0
-45 0
-24 0
-25 0
-26 0
-34 0
-35 0
-36 0
-36 0
-45 0
-46 0
-25 0
-26 0
-27 0
-35 0
-36 0
-37 0
-35 0
-46 0
-47 0
-26 0
-27 0
-28 0
-36 0
-37 0
-38 0
-34 0
-47 0
-48 0
-27 0
-28 0
-29 0
-37 0
-38 0
-39 0
-33 0
-48 0
-49 0
-28 0
-29 0
-30 0
-38 0
-39 0
-40 0
-32 0
-49 0
-50 0
-29 0
-30 0
-39 0
-40 0
-31 0
-50 0
-31 0
-32 0
-41 0
-42 0
-51 0
-52 0
-31 0
-32 0
-33 0
-41 0
-42 0
-43 0
-49 0
-52 0
-53 0
-32 0
-33 0
-34 0
-42 0
-43 0
-44 0
-48 0
-53 0
-54 0
-33 0
-34 0
-35 0
-43 0
-44 0
-45 0
-47 0
-54 0
-55 0
-34 0
-35 0
-36 0
-44 0
-45 0
-46 0
-46 0
-55 0
-56 0
-35 0
-36 0
-37 0
-45 0
-46 0
-47 0
-45 0
-56 0
-57 0
-36 0
-37 0
-38 0
-46 0
-47 0
-48 0
-44 0
-57 0
-58 0
-37 0
-38 0
-39 0
-47 0
-48 0
-49 0
-43 0
-58 0
-59 0
-38 0
-39 0
-40 0
-48 0
-49 0
-50 0
-42 0
-59 0
-60 0
-39 0
-40 0
-49 0
-50 0
-41 0
-60 0
-41 0
-42 0
-51 0
-52 0
-61 0
-62 0
-41 0
-42 0
-43 0
-51 0
-52 0
-53 0
-59 0
-62 0
-63 0
-42 0
-43 0
-44 0
-52 0
-53 0
-54 0
-58 0
-63 0
-64 0
-43 0
-44 0
-45 0
-53 0
-54 0
-55 0
-57 0
-64 0
-65 0
-44 0
-45 0
-46 0
-54 0
-55 0
-56 0
-56 0
-65 0
-66 0
-45 0
-46 0
-47 0
-55 0
-56 0
-57 0
-55 0
-66 0
-67 0
-46 0
-47 0
-48 0
-56 0
-57 0
-58 0
-54 0
-67 0
-68 0
-47 0
-48 0
-49 0
-57 0
-58 0
-59 0
-53 0
-68 0
-69 0
-48 0
-49 0
-50 0
-58 0
-59 0
-60 0
-52 0
-69 0
-70 0
-49 0
-50 0
-59 0
-60 0
-51 0
-70 0
51 52 146 0
-146 61 147 0
-147 62 148 0
-148 71 72 0
-51 -52 0
-51 -61 0
-52 -61 0
-51 -62 0
-52 -62 0
-61 -62 0
-51 -71 0
-52 -71 0
-61 -71 0
-62 -71 0
-51 -72 0
-52 -72 0
-61 -72 0
-62 -72 0
-71 -72 0
51 52 149 0
-149 53 150 0
-150 61 151 0
-151 62 152 0
-152 63 153 0
-153 71 154 0
-154 72 73 0
-51 -52 0
-51 -53 0
-52 -53 0
-51 -61 0
-52 -61 0
-53 -61 0
-51 -62 0
-52 -62 0
-53 -62 0
-61 -62 0
-51 -63 0
-52 -63 0
-53 -63 0
-61 -63 0
-62 -63 0
-51 -71 0
-52 -71 0
-53 -71 0
-61 -71 0
-62 -71 0
-63 -71 0
-51 -72 0
-52 -72 0
-53 -72 0
-61 -72 0
-62 -72 0
-63 -72 0
-71 -72 0
-51 -73 0
-52 -73 0
-53 -73 0
-61 -73 0
-62 -73 0
-63 -73 0
-71 -73 0
-72 -73 0
52 53 155 0
-155 54 156 0
-156 62 157 0
-157 63 158 0
-158 64 159 0
-159 72 160 0
-160 73 74 0
-52 -53 0
-52 -54 0
-53 -54 0
-52 -62 0
-53 -62 0
-54 -62 0
-52 -63 0
-53 -63 0
-54 -63 0
-62 -63 0
-52 -64 0
-53 -64 0
-54 -64 0
-62 -64 0
-63 -64 0
-52 -72 0
-53 -72 0
-54 -72 0
-62 -72 0
-63 -72 0
-64 -72 0
-52 -73 0
-53 -73 0
-54 -73 0
-62 -73 0
-63 -73 0
-64 -73 0
-72 -73 0
-52 -74 0
-53 -74 0
-54 -74 0
-62 -74 0
-63 -74 0
-64 -74 0
-72 -74 0
-73 -74 0
-53 0
-54 0
-55 0
-63 0
-64 0
-65 0
-67 0
-74 0
-75 0
-54 0
-55 0
-56 0
-64 0
-65 0
-66 0
-66 0
-75 0
-76 0
-55 0
-56 0
-57 0
-65 0
-66 0
-67 0
-65 0
-76 0
-77 0
-56 0
-57 0
-58 0
-66 0
-67 0
-68 0
-64 0
-77 0
-78 0
-57 0
-58 0
-59 0
-67 0
-68 0
-69 0
-63 0
-78 0
-79 0
-58 0
-59 0
-60 0
-68 0
-69 0
-70 0
-62 0
-79 0
-80 0
-59 0
-60 0
-69 0
-70 0
-61 0
-80 0
61 62 161 0
-161 71 162 0
-162 72 163 0
-163 81 82 0
-61 -62 0
-61 -71 0
-62 -71 0
-61 -72 0
-62 -72 0
-71 -72 0
-61 -81 0
-62 -81 0
-71 -81 0
-72 -81 0
-61 -82 0
-62 -82 0
-71 -82 0
-72 -82 0
-81 -82 0
61 62 164 0
-164 63 165 0
-165 71 166 0
-166 72 167 0
-167 73 168 0
-168 81 169 0
-169 82 83 0
-61 -62 0
-61 -63 0
-62 -63 0
-61 -71 0
-62 -71 0
-63 -71 0
-61 -72 0
-62 -72 0
-63 -72 0
-71 -72 0
-61 -73 0
-62 -73 0
-63 -73 0
-71 -73 0
-72 -73 0
-61 -81 0
-62 -81 0
-63 -81 0
-71 -81 0
-72 -81 0
-73 -81 0
-61 -82 0
-62 -82 0
-63 -82 0
-71 -82 0
-72 -82 0
-73 -82 0
-81 -82 0
-61 -83 0
-62 -83 0
-63 -83 0
-71 -83 0
-72 -83 0
-73 -83 0
-81 -83 0
-82 -83 0
62 63 170 0
-170 64 171 0
-171 72 172 0
-172 73 173 0
-173 74 174 0
-174 82 175 0
-175 83 84 0
-62 -63 0
-62 -64 0
-63 -64 0
-62 -72 0
-63 -72 0
-64 -72 0
-62 -73 0
-63 -73 0
-64 -73 0
-72 -73 0
-62 -74 0
-63 -74 0
-64 -74 0
-72 -74 0
-73 -74 0
-62 -82 0
-63 -82 0
-64 -82 0
-72 -82 0
-73 -82 0
-74 -82 0
-62 -83 0
-63 -83 0
-64 -83 0
-72 -83 0
-73 -83 0
-74 -83 0
-82 -83 0
-62 -84 0
-63 -84 0
-64 -84 0
-72 -84 0
-73 -84 0
-74 -84 0
-82 -84 0
-83 -84 0
-63 0
-64 0
-65 0
-73 0
-74 0
-75 0
-77 0
-84 0
-85 0
-64 0
-65 0
-66 0
-74 0
-75 0
-76 0
-76 0
-85 0
-86 0
-65 0
-66 0
-67 0
-75 0
-76 0
-77 0
-75 0
-86 0
-87 0
-66 0
-67 0
-68 0
-76 0
-77 0
-78 0
-74 0
-87 0
-88 0
-67 0
-68 0
-69 0
-77 0
-78 0
-79 0
-73 0
-88 0
-89 0
-68 0
-69 0
-70 0
-78 0
-79 0
-80 0
-72 0
-89 0
-90 0
-69 0
-70 0
-79 0
-80 0
-71 0
-90 0
71 72 176 0
-176 81 177 0
-177 82 178 0
-178 91 92 0
-71 -72 0
-71 -81 0
-72 -81 0
-71 -82 0
-72 -82 0
-81 -82 0
-71 -91 0
-72 -91 0
-81 -91 0
-82 -91 0
-71 -92 0
-72 -92 0
-81 -92 0
-82 -92 0
-91 -92 0
71 72 179 0
-179 73 180 0
-180 81 181 0
-181 82 182 0
-182 83 183 0
-183 91 184 0
-184 92 93 0
-71 -72 0
-71 -73 0
-72 -73 0
-71 -81 0
-72 -81 0
-73 -81 0
-71 -82 0
-72 -82 0
-73 -82 0
-81 -82 0
-71 -83 0
-72 -83 0
-73 -83 0
-81 -83 0
-82 -83 0
-71 -91 0
-72 -91 0
-73 -91 0
-81 -91 0
-82 -91 0
-83 -91 0
-71 -92 0
-72 -92 0
-73 -92 0
-81 -92 0
-82 -92 0
-83 -92 0
-91 -92 0
-71 -93 0
-72 -93 0
-73 -93 0
-81 -93 0
-82 -93 0
-83 -93 0
-91 -93 0
-92 -93 0
72 73 185 0
-185 74 186 0
-186 82 187 0
-187 83 188 0
-188 84 189 0
-189 92 190 0
-190 93 94 0
-72 -73 0
-72 -74 0
-73 -74 0
-72 -82 0
-73 -82 0
-74 -82 0
-72 -83 0
-73 -83 0
-74 -83 0
-82 -83 0
-72 -84 0
-73 -84 0
-74 -84 0
-82 -84 0
-83 -84 0
-72 -92 0
-73 -92 0
-74 -92 0
-82 -92 0
-83 -92 0
-84 -92 0
-72 -93 0
-73 -93 0
-74 -93 0
-82 -93 0
-83 -93 0
-84 -93 0
-92 -93 0
-72 -94 0
-73 -94 0
-74 -94 0
-82 -94 0
-83 -94 0
-84 -94 0
-92 -94 0
-93 -94 0
-73 0
-74 0
-75 0
-83 0
-84 0
-85 0
-87 0
-94 0
-95 0
-74 0
-75 0
-76 0
-84 0
-85 0
-86 0
-86 0
-95 0
-96 0
-75 0
-76 0
-77 0
-85 0
-86 0
-87 0
-85 0
-96 0
-97 0
-76 0
-77 0
-78 0
-86 0
-87 0
-88 0
-84 0
-97 0
-98 0
-77 0
-78 0
-79 0
-87 0
-88 0
-89 0
-83 0
-98 0
-99 0
-78 0
-79 0
-80 0
-88 0
-89 0
-90 0
-82 0
-99 0
-100 0
-79 0
-80 0
-89 0
-90 0
-81 0
-100 0
-81 0
-82 0
-91 0
-92 0
-81 0
-82 0
-83 0
-91 0
-92 0
-93 0
-82 0
-83 0
-84 0
-92 0
-93 0
-94 0
-83 0
-84 0
-85 0
-93 0
-94 0
-95 0
-84 0
-85 0
-86 0
-94 0
-95 0
-96 0
-85 0
-86 0
-87 0
-95 0
-96 0
-97 0
-86 0
-87 0
-88 0
-96 0
-97 0
-98 0
-87 0
-88 0
-89 0
-97 0
-98 0
-99 0
-88 0
-89 0
-90 0
-98 0
-99 0
-100 0
-89 0
-90 0
-99 0
-100 0
